
Gurobi 10.0.1 (linux64) logging started Sun Nov 26 16:05:05 2023

Set parameter LogFile to value "ArtificialInstance/ExperimentV2/S3T5K2/AdSp/gurobiDoSp61.txt"
Gurobi Optimizer version 10.0.1 build v10.0.1rc0 (linux64)

CPU model: AMD EPYC 7H12 64-Core Processor, instruction set [SSE2|AVX|AVX2]
Thread count: 128 physical cores, 128 logical processors, using up to 32 threads

Academic license 656792 - for non-commercial use only - registered to b.___@student.vu.nl
Optimize a model with 11296 rows, 10572 columns and 40596 nonzeros
Model fingerprint: 0x2cd3b02c
Variable types: 0 continuous, 10572 integer (10572 binary)
Coefficient statistics:
  Matrix range     [1e+00, 1e+00]
  Objective range  [1e+00, 2e+01]
  Bounds range     [1e+00, 1e+00]
  RHS range        [1e+00, 1e+00]
Presolve removed 9084 rows and 8520 columns
Presolve time: 0.19s
Presolved: 2212 rows, 2052 columns, 8109 nonzeros
Variable types: 0 continuous, 2052 integer (2052 binary)

Root relaxation: objective 8.268256e+01, 536 iterations, 0.01 seconds (0.01 work units)

    Nodes    |    Current Node    |     Objective Bounds      |     Work
 Expl Unexpl |  Obj  Depth IntInf | Incumbent    BestBd   Gap | It/Node Time

*    0     0               0      82.6825608   82.68256  0.00%     -    0s

Explored 1 nodes (536 simplex iterations) in 0.23 seconds (0.15 work units)
Thread count was 32 (of 128 available processors)

Solution count 1: 82.6826 

Optimal solution found (tolerance 1.00e-04)
Best objective 8.268256077859e+01, best bound 8.268256077859e+01, gap 0.0000%
